4790546762604596557505,14,1,2,08,14,1,2,01,11,1,2,015,5,1,2,010,3,1,2,012,5,1,2,010,8,1,2,04,7,1,2,05,4,1,2,05,13,1,2,02,2,1,2,010,5,1,2,01,10,1,2,010,14,1,2,03,8,1,2,01,13,1,2,05,7,1,2,01,9,1,2,03,12,1,2,02,13,1,2,011,14,1,2,07,8,1,2,04,4,1,2,012,13,1,2,06,2,1,2,010,12,1,2,01,9,1,2,02,8,1,2,07,9,1,2,09,13,1,2,08,6,1,2,014,3,1,2,011,5,1,2,07,4,1,2,011,7,1,2,09,1,1,2,05,11,1,2,01,6,1,2,011,7,1,2,04,1,1,2,012,2,1,2,08,5,1,2,09,15,1,2,05,3,1,2,013,6,1,2,013,6,1,2,011,13,1,2,04,3,1,2,011,8,1,2,011,9,1,2,0